
Gurobi 6.5.2 (win64) logging started 07/23/16 02:47:17


Gurobi 6.5.2 (win64) logging started 07/23/16 02:47:17

Optimize a model with 15252 rows, 1340 columns and 33772 nonzeros
Coefficient statistics:
  Matrix range    [4e-06, 1e+03]
  Objective range [1e+00, 1e+00]
  Bounds range    [1e+00, 1e+00]
  RHS range       [1e+00, 1e+03]
Found heuristic solution: objective 2169.49
Presolve removed 15224 rows and 1311 columns
Presolve time: 0.01s
Presolved: 28 rows, 29 columns, 87 nonzeros
Found heuristic solution: objective 245.8173073
Variable types: 29 continuous, 0 integer (0 binary)

Root relaxation: objective 2.118844e+02, 18 iterations, 0.00 seconds

    Nodes    |    Current Node    |     Objective Bounds      |     Work
 Expl Unexpl |  Obj  Depth IntInf | Incumbent    BestBd   Gap | It/Node Time

*    0     0               0     211.8843597  211.88436  0.00%     -    0s

Explored 0 nodes (18 simplex iterations) in 0.01 seconds
Thread count was 8 (of 8 available processors)

Optimal solution found (tolerance 1.00e-04)
Best objective 2.118843596737e+02, best bound 2.118843596737e+02, gap 0.0%

Wrote requested result file 'H2\instance12\\Results12EC_Sol6.lp'

